NAME: tsp5_8
COMMENT: 5-tsp problem (Padberg/Rinaldi)
TYPE: TSP
DIMENSION: 5
EDGE_WEIGHT_TYPE : EUC_2D
NODE_COORD_SECTION
1.00 22.60 5.61
2.00 20.64 6.05
3.00 20.04 16.11
4.00 37.67 15.96
5.00 4.24 32.81
